5
25
0 36000
360 7560
8460 15660
28380 35580
21960 29160
16740 23940
17460 24660
7680 14880
14640 21840
22860 30060
24720 31920
2640 9840
15600 22800
11940 19140
2100 9300
13020 20220
20160 27360
14400 21600
11700 18900
27240 34440
28380 35580
17040 24240
15300 22500
17700 24900
2520 9720
5280 12480